NAME: line_24_31
TYPE: TSP
COMMENT: srandom_24_31
DIMENSION: 24
EDGE_WEIGHT_TYPE: EUC_2D
NODE_COORD_SECTION
1 2625 3281
2 4559 2023
3 1145 2289
4 1467 4461
5 3793 442
6 3860 1578
7 530 3768
8 3659 2850
9 2207 1050
10 4920 1076
11 4308 2236
12 2052 495
13 3115 2298
14 748 281
15 1443 1947
16 4025 932
17 2865 3180
18 2585 1479
19 2022 3965
20 4975 348
21 4568 3744
22 3089 358
23 1965 569
24 2431 1510
